(declare-datatype Position ((P0) (P1) (P2) (P3) (P4)))
(declare-const a0 Position)
(declare-const a0_1 Position)
(declare-const a0_2 Position)
(declare-const a0_3 Position)
(declare-const a1 Position)
(declare-const a1_1 Position)
(declare-const a1_2 Position)
(declare-const a1_3 Position)
(declare-const d0 Bool)
(declare-const d0_1 Bool)
(declare-const d0_2 Bool)
(declare-const d0_3 Bool)
(declare-const d1 Bool)
(declare-const d1_1 Bool)
(declare-const d1_2 Bool)
(declare-const d1_3 Bool)
(declare-const s1 Int)
(declare-const s1_1 Int)
(declare-const s1_2 Int)
(declare-const s1_3 Int)
(declare-const s2 Int)
(declare-const s2_1 Int)
(declare-const s2_2 Int)
(declare-const s2_3 Int)
(declare-const s3 Int)
(declare-const s3_1 Int)
(declare-const s3_2 Int)
(declare-const s3_3 Int)
(assert (>= s1 0))
(assert (>= s1_1 0))
(assert (>= s1_2 0))
(assert (>= s1_3 0))
(assert (>= s2 0))
(assert (>= s2_1 0))
(assert (>= s2_2 0))
(assert (>= s2_3 0))
(assert (>= s3 0))
(assert (>= s3_1 0))
(assert (>= s3_2 0))
(assert (>= s3_3 0))
(assert
 (not
  (=>
   (and (= s1_1 (+ s1 (ite (= a0 P1) 1 0) (ite (= a1 P1) 1 0)))
    (= s3_1 (+ s3 (ite (= a0 P3) 1 0) (ite (= a1 P3) 1 0)))
    (= s2_1 (+ s2 (ite (= a0 P2) 1 0) (ite (= a1 P2) 1 0)))
    (=> (= a0 P1) (and (= a0_1 (ite d0 P4 P0)) (iff d0_1 d0)))
    (=> (= a0 P2) (and (= a0_1 (ite d0 P3 P0)) (iff d0_1 d0)))
    (=> (= a0 P3) (and (= a0_1 (ite d0 P4 P2)) (iff d0_1 d0)))
    (=> (= a0 P0) (and (or (= a0_1 P1) (= a0_1 P2)) d0_1))
    (=> (and (= a0 P0) (= a0_1 P1)) (<= s2 s1))
    (=> (and (= a0 P0) (= a0_1 P2)) (<= s1 s2))
    (=> (= a0 P4) (and (or (= a0_1 P1) (= a0_1 P3)) (not d0_1)))
    (=> (and (= a0 P4) (= a0_1 P1)) (<= s3 s1))
    (=> (and (= a0 P4) (= a0_1 P3)) (<= s1 s3))
    (=> (= a1 P1) (and (= a1_1 (ite d1 P4 P0)) (iff d1_1 d1)))
    (=> (= a1 P2) (and (= a1_1 (ite d1 P3 P0)) (iff d1_1 d1)))
    (=> (= a1 P3) (and (= a1_1 (ite d1 P4 P2)) (iff d1_1 d1)))
    (=> (= a1 P0) (and (or (= a1_1 P1) (= a1_1 P2)) d1_1))
    (=> (and (= a1 P0) (= a1_1 P1)) (<= s2 s1))
    (=> (and (= a1 P0) (= a1_1 P2)) (<= s1 s2))
    (=> (= a1 P4) (and (or (= a1_1 P1) (= a1_1 P3)) (not d1_1)))
    (=> (and (= a1 P4) (= a1_1 P1)) (<= s3 s1))
    (=> (and (= a1 P4) (= a1_1 P3)) (<= s1 s3))
    (= s1_2 (+ s1_1 (ite (= a0_1 P1) 1 0) (ite (= a1_1 P1) 1 0)))
    (= s3_2 (+ s3_1 (ite (= a0_1 P3) 1 0) (ite (= a1_1 P3) 1 0)))
    (= s2_2 (+ s2_1 (ite (= a0_1 P2) 1 0) (ite (= a1_1 P2) 1 0)))
    (=> (= a0_1 P1) (and (= a0_2 (ite d0_1 P4 P0)) (iff d0_2 d0_1)))
    (=> (= a0_1 P2) (and (= a0_2 (ite d0_1 P3 P0)) (iff d0_2 d0_1)))
    (=> (= a0_1 P3) (and (= a0_2 (ite d0_1 P4 P2)) (iff d0_2 d0_1)))
    (=> (= a0_1 P0) (and (or (= a0_2 P1) (= a0_2 P2)) d0_2))
    (=> (and (= a0_1 P0) (= a0_2 P1)) (<= s2_1 s1_1))
    (=> (and (= a0_1 P0) (= a0_2 P2)) (<= s1_1 s2_1))
    (=> (= a0_1 P4) (and (or (= a0_2 P1) (= a0_2 P3)) (not d0_2)))
    (=> (and (= a0_1 P4) (= a0_2 P1)) (<= s3_1 s1_1))
    (=> (and (= a0_1 P4) (= a0_2 P3)) (<= s1_1 s3_1))
    (=> (= a1_1 P1) (and (= a1_2 (ite d1_1 P4 P0)) (iff d1_2 d1_1)))
    (=> (= a1_1 P2) (and (= a1_2 (ite d1_1 P3 P0)) (iff d1_2 d1_1)))
    (=> (= a1_1 P3) (and (= a1_2 (ite d1_1 P4 P2)) (iff d1_2 d1_1)))
    (=> (= a1_1 P0) (and (or (= a1_2 P1) (= a1_2 P2)) d1_2))
    (=> (and (= a1_1 P0) (= a1_2 P1)) (<= s2_1 s1_1))
    (=> (and (= a1_1 P0) (= a1_2 P2)) (<= s1_1 s2_1))
    (=> (= a1_1 P4) (and (or (= a1_2 P1) (= a1_2 P3)) (not d1_2)))
    (=> (and (= a1_1 P4) (= a1_2 P1)) (<= s3_1 s1_1))
    (=> (and (= a1_1 P4) (= a1_2 P3)) (<= s1_1 s3_1))
    (= s1_3 (+ s1_2 (ite (= a0_2 P1) 1 0) (ite (= a1_2 P1) 1 0)))
    (= s3_3 (+ s3_2 (ite (= a0_2 P3) 1 0) (ite (= a1_2 P3) 1 0)))
    (= s2_3 (+ s2_2 (ite (= a0_2 P2) 1 0) (ite (= a1_2 P2) 1 0)))
    (=> (= a0_2 P1) (and (= a0_3 (ite d0_2 P4 P0)) (iff d0_3 d0_2)))
    (=> (= a0_2 P2) (and (= a0_3 (ite d0_2 P3 P0)) (iff d0_3 d0_2)))
    (=> (= a0_2 P3) (and (= a0_3 (ite d0_2 P4 P2)) (iff d0_3 d0_2)))
    (=> (= a0_2 P0) (and (or (= a0_3 P1) (= a0_3 P2)) d0_3))
    (=> (and (= a0_2 P0) (= a0_3 P1)) (<= s2_2 s1_2))
    (=> (and (= a0_2 P0) (= a0_3 P2)) (<= s1_2 s2_2))
    (=> (= a0_2 P4) (and (or (= a0_3 P1) (= a0_3 P3)) (not d0_3)))
    (=> (and (= a0_2 P4) (= a0_3 P1)) (<= s3_2 s1_2))
    (=> (and (= a0_2 P4) (= a0_3 P3)) (<= s1_2 s3_2))
    (=> (= a1_2 P1) (and (= a1_3 (ite d1_2 P4 P0)) (iff d1_3 d1_2)))
    (=> (= a1_2 P2) (and (= a1_3 (ite d1_2 P3 P0)) (iff d1_3 d1_2)))
    (=> (= a1_2 P3) (and (= a1_3 (ite d1_2 P4 P2)) (iff d1_3 d1_2)))
    (=> (= a1_2 P0) (and (or (= a1_3 P1) (= a1_3 P2)) d1_3))
    (=> (and (= a1_2 P0) (= a1_3 P1)) (<= s2_2 s1_2))
    (=> (and (= a1_2 P0) (= a1_3 P2)) (<= s1_2 s2_2))
    (=> (= a1_2 P4) (and (or (= a1_3 P1) (= a1_3 P3)) (not d1_3)))
    (=> (and (= a1_2 P4) (= a1_3 P1)) (<= s3_2 s1_2))
    (=> (and (= a1_2 P4) (= a1_3 P3)) (<= s1_2 s3_2))
    (> s1 (ite (<= s2 s3) s3 s2)) (> s1_1 (ite (<= s2_1 s3_1) s3_1 s2_1))
    (> s1_2 (ite (<= s2_2 s3_2) s3_2 s2_2)))
   (> s1_3 (ite (<= s2_3 s3_3) s3_3 s2_3)))))
(check-sat)
